(set-info :source |printed by MathSAT|)
(declare-fun call_moesi.ite14.next () Int)
(declare-fun call_moesi.ite5.next () Int)
(declare-fun param_etat_mo2.next () Bool)
(declare-fun call_moesi.ite8 () Int)
(declare-fun exclusive_mo.next () Int)
(declare-fun call_moesi.ite33 () Int)
(declare-fun call_moesi.ite27 () Int)
(declare-fun shared_mo () Int)
(declare-fun call_moesi.ite24 () Int)
(declare-fun call_moesi.ite17 () Int)
(declare-fun call_moesi.flby () Bool)
(declare-fun param_etat_mo1.next () Bool)
(declare-fun call_Sofar.Sofar () Bool)
(declare-fun call_moesi.ite3 () Int)
(declare-fun call_moesi.flby6 () Int)
(declare-fun call_moesi.ite34.next () Int)
(declare-fun call_moesi.ite24.next () Int)
(declare-fun call_Sofar.Sofar.next () Bool)
(declare-fun call_moesi.erreur_mo () Bool)
(declare-fun call_moesi.ite.next () Int)
(declare-fun call_moesi.ite26 () Int)
(declare-fun call_moesi.ite18 () Int)
(declare-fun call_moesi.flby4.next () Int)
(declare-fun call_moesi.invalid_mo () Int)
(declare-fun call_moesi.ite11.next () Int)
(declare-fun call_moesi.ite11 () Int)
(declare-fun call_moesi.flby5 () Int)
(declare-fun call_moesi.shared_mo.next () Int)
(declare-fun call_moesi.flby2.next () Int)
(declare-fun call_moesi.ite15.next () Int)
(declare-fun call_Sofar.flby () Bool)
(declare-fun call_moesi.ite2 () Int)
(declare-fun call_moesi.modified_mo () Int)
(declare-fun call_moesi.ite20 () Int)
(declare-fun param_etat_mo1 () Bool)
(declare-fun call_Sofar.flby.next () Bool)
(declare-fun modified_mo.next () Int)
(declare-fun call_moesi.ite7 () Int)
(declare-fun call_moesi.ite21.next () Int)
(declare-fun erreur_mo () Bool)
(declare-fun call_excludes4.excludes () Bool)
(declare-fun call_moesi.ite25.next () Int)
(declare-fun call_moesi.ite10.next () Int)
(declare-fun call_moesi.ite22 () Int)
(declare-fun call_moesi.ite28.next () Int)
(declare-fun owned_mo () Int)
(declare-fun call_moesi.garde_mo1.next () Bool)
(declare-fun call_excludes4.excludes.next () Bool)
(declare-fun call_moesi.exclusive_mo.next () Int)
(declare-fun call_moesi.ite32 () Int)
(declare-fun call_moesi.flby3.next () Int)
(declare-fun call_moesi.ite4.next () Int)
(declare-fun call_moesi.flby4 () Int)
(declare-fun call_moesi.ite30.next () Int)
(declare-fun call_moesi.ite8.next () Int)
(declare-fun param_etat_mo2 () Bool)
(declare-fun call_moesi.ite29.next () Int)
(declare-fun call_moesi.ite16 () Int)
(declare-fun call_moesi.ite20.next () Int)
(declare-fun call_moesi.ite6 () Int)
(declare-fun call_moesi.garde_mo2.next () Bool)
(declare-fun call_moesi.flby2 () Int)
(declare-fun call_moesi.shared_mo () Int)
(declare-fun call_moesi.ite28 () Int)
(declare-fun owned_mo.next () Int)
(declare-fun call_moesi.ite2.next () Int)
(declare-fun call_moesi.ite () Int)
(declare-fun param_etat_mo3.next () Bool)
(declare-fun call_moesi.flby3 () Int)
(declare-fun call_moesi.garde_mo4.next () Bool)
(declare-fun call_moesi.ite10 () Int)
(declare-fun call_moesi.ite22.next () Int)
(declare-fun call_moesi.ite21 () Int)
(declare-fun call_moesi.modified_mo.next () Int)
(declare-fun call_moesi.ite26.next () Int)
(declare-fun call_moesi.ite13.next () Int)
(declare-fun erreur_mo.next () Bool)
(declare-fun call_moesi.ite31.next () Int)
(declare-fun modified_mo () Int)
(declare-fun param_etat_mo4 () Bool)
(declare-fun invalid_mo () Int)
(declare-fun call_moesi.ite6.next () Int)
(declare-fun call_moesi.ite29 () Int)
(declare-fun call_moesi.ite19.next () Int)
(declare-fun call_moesi.ite18.next () Int)
(declare-fun call_moesi.owned_mo.next () Int)
(declare-fun call_moesi.flby6.next () Int)
(declare-fun exclusive_mo () Int)
(declare-fun call_moesi.ite15 () Int)
(declare-fun _OK_.next () Bool)
(declare-fun call_moesi.flby.next () Bool)
(declare-fun call_moesi.ite9.next () Int)
(declare-fun invalid_mo.next () Int)
(declare-fun call_moesi.ite14 () Int)
(declare-fun call_moesi.ite17.next () Int)
(declare-fun call_moesi.ite3.next () Int)
(declare-fun param_etat_mo3 () Bool)
(declare-fun param_etat_mo4.next () Bool)
(declare-fun call_moesi.ite32.next () Int)
(declare-fun call_moesi.ite16.next () Int)
(declare-fun call_moesi.ite30 () Int)
(declare-fun call_moesi.ite33.next () Int)
(declare-fun call_moesi.garde_mo3.next () Bool)
(declare-fun call_moesi.erreur_mo.next () Bool)
(declare-fun shared_mo.next () Int)
(declare-fun param_init_invalid_mo.next () Int)
(declare-fun call_moesi.exclusive_mo () Int)
(declare-fun call_moesi.ite23 () Int)
(declare-fun call_moesi.ite12.next () Int)
(declare-fun call_moesi.ite5 () Int)
(declare-fun _OK_ () Bool)
(declare-fun call_moesi.ite34 () Int)
(declare-fun call_moesi.ite7.next () Int)
(declare-fun call_moesi.flby5.next () Int)
(declare-fun call_moesi.invalid_mo.next () Int)
(declare-fun call_moesi.ite9 () Int)
(declare-fun call_moesi.ite13 () Int)
(declare-fun call_moesi.ite23.next () Int)
(declare-fun call_moesi.owned_mo () Int)
(declare-fun call_moesi.ite27.next () Int)
(define-fun .def_1289 () Bool (= call_Sofar.flby.next call_Sofar.Sofar.next))
(define-fun .def_1284 () Bool (and param_etat_mo4.next param_etat_mo3.next))
(define-fun .def_1282 () Bool (and param_etat_mo4.next param_etat_mo2.next))
(define-fun .def_1280 () Bool (and param_etat_mo2.next param_etat_mo3.next))
(define-fun .def_1278 () Bool (and param_etat_mo4.next param_etat_mo1.next))
(define-fun .def_1276 () Bool (and param_etat_mo1.next param_etat_mo3.next))
(define-fun .def_1275 () Bool (and param_etat_mo2.next param_etat_mo1.next))
(define-fun .def_1277 () Bool (or .def_1275 .def_1276))
(define-fun .def_1279 () Bool (or .def_1277 .def_1278))
(define-fun .def_1281 () Bool (or .def_1279 .def_1280))
(define-fun .def_1283 () Bool (or .def_1281 .def_1282))
(define-fun .def_1285 () Bool (or .def_1283 .def_1284))
(define-fun .def_1286 () Bool (not .def_1285))
(define-fun .def_1287 () Bool (= call_excludes4.excludes.next .def_1286))
(define-fun .def_1273 () Bool (= call_moesi.flby.next call_moesi.erreur_mo.next))
(define-fun .def_1271 () Bool (= call_moesi.flby6.next call_moesi.owned_mo.next))
(define-fun .def_1269 () Bool (= call_moesi.flby5.next call_moesi.invalid_mo.next))
(define-fun .def_1267 () Bool (= call_moesi.flby4.next call_moesi.shared_mo.next))
(define-fun .def_1265 () Bool (= call_moesi.exclusive_mo.next call_moesi.flby3.next))
(define-fun .def_1263 () Bool (= call_moesi.flby2.next call_moesi.modified_mo.next))
(define-fun .def_1261 () Bool (= erreur_mo.next call_moesi.erreur_mo.next))
(define-fun .def_1258 () Bool (= owned_mo.next call_moesi.owned_mo.next))
(define-fun .def_1254 () Bool (= invalid_mo.next call_moesi.invalid_mo.next))
(define-fun .def_1250 () Bool (= shared_mo.next call_moesi.shared_mo.next))
(define-fun .def_1246 () Bool (= call_moesi.exclusive_mo.next exclusive_mo.next))
(define-fun .def_1243 () Bool (= modified_mo.next call_moesi.modified_mo.next))
(define-fun .def_1237 () Bool (not erreur_mo.next))
(define-fun .def_1235 () Bool (not call_Sofar.Sofar.next))
(define-fun .def_1238 () Bool (or .def_1235 .def_1237))
(define-fun .def_1239 () Bool (= _OK_.next .def_1238))
(define-fun .def_1229 () Bool (= call_moesi.ite32.next call_moesi.ite33.next))
(define-fun .def_1230 () Bool (or param_etat_mo3.next .def_1229))
(define-fun .def_1226 () Bool (= call_moesi.ite30.next call_moesi.ite33.next))
(define-fun .def_1205 () Bool (not param_etat_mo3.next))
(define-fun .def_1227 () Bool (or .def_1205 .def_1226))
(define-fun .def_1223 () Bool (= call_moesi.ite26.next call_moesi.ite27.next))
(define-fun .def_1224 () Bool (or param_etat_mo3.next .def_1223))
(define-fun .def_1220 () Bool (= call_moesi.ite24.next call_moesi.ite27.next))
(define-fun .def_1221 () Bool (or .def_1205 .def_1220))
(define-fun .def_1217 () Bool (= call_moesi.ite20.next call_moesi.ite21.next))
(define-fun .def_1218 () Bool (or param_etat_mo3.next .def_1217))
(define-fun .def_1214 () Bool (= call_moesi.ite18.next call_moesi.ite21.next))
(define-fun .def_1215 () Bool (or .def_1205 .def_1214))
(define-fun .def_1211 () Bool (= call_moesi.ite13.next call_moesi.ite14.next))
(define-fun .def_1212 () Bool (or param_etat_mo3.next .def_1211))
(define-fun .def_1208 () Bool (= call_moesi.ite11.next call_moesi.ite14.next))
(define-fun .def_1209 () Bool (or .def_1205 .def_1208))
(define-fun .def_1204 () Bool (= call_moesi.ite3.next call_moesi.ite6.next))
(define-fun .def_1206 () Bool (or .def_1204 .def_1205))
(define-fun .def_1201 () Bool (= call_moesi.ite5.next call_moesi.ite6.next))
(define-fun .def_1203 () Bool (or .def_1201 param_etat_mo3.next))
(define-fun .def_1207 () Bool (and .def_1203 .def_1206))
(define-fun .def_1210 () Bool (and .def_1207 .def_1209))
(define-fun .def_1213 () Bool (and .def_1210 .def_1212))
(define-fun .def_1216 () Bool (and .def_1213 .def_1215))
(define-fun .def_1219 () Bool (and .def_1216 .def_1218))
(define-fun .def_1222 () Bool (and .def_1219 .def_1221))
(define-fun .def_1225 () Bool (and .def_1222 .def_1224))
(define-fun .def_1228 () Bool (and .def_1225 .def_1227))
(define-fun .def_1231 () Bool (and .def_1228 .def_1230))
(define-fun .def_1197 () Bool (= call_moesi.ite34.next call_moesi.ite33.next))
(define-fun .def_1198 () Bool (or param_etat_mo1.next .def_1197))
(define-fun .def_1193 () Bool (= call_moesi.ite29.next call_moesi.ite34.next))
(define-fun .def_1170 () Bool (not param_etat_mo1.next))
(define-fun .def_1194 () Bool (or .def_1170 .def_1193))
(define-fun .def_1190 () Bool (= call_moesi.ite28.next call_moesi.ite27.next))
(define-fun .def_1191 () Bool (or param_etat_mo1.next .def_1190))
(define-fun .def_1186 () Bool (= call_moesi.ite23.next call_moesi.ite28.next))
(define-fun .def_1187 () Bool (or .def_1170 .def_1186))
(define-fun .def_1183 () Bool (= call_moesi.ite22.next call_moesi.ite21.next))
(define-fun .def_1184 () Bool (or param_etat_mo1.next .def_1183))
(define-fun .def_1179 () Bool (= call_moesi.ite17.next call_moesi.ite22.next))
(define-fun .def_1180 () Bool (or .def_1170 .def_1179))
(define-fun .def_1176 () Bool (= call_moesi.ite16.next call_moesi.ite15.next))
(define-fun .def_1177 () Bool (or param_etat_mo1.next .def_1176))
(define-fun .def_1173 () Bool (= call_moesi.ite9.next call_moesi.ite16.next))
(define-fun .def_1174 () Bool (or .def_1170 .def_1173))
(define-fun .def_1169 () Bool (= call_moesi.ite.next call_moesi.ite8.next))
(define-fun .def_1171 () Bool (or .def_1169 .def_1170))
(define-fun .def_1166 () Bool (= call_moesi.ite8.next call_moesi.ite7.next))
(define-fun .def_1168 () Bool (or .def_1166 param_etat_mo1.next))
(define-fun .def_1172 () Bool (and .def_1168 .def_1171))
(define-fun .def_1175 () Bool (and .def_1172 .def_1174))
(define-fun .def_1178 () Bool (and .def_1175 .def_1177))
(define-fun .def_1181 () Bool (and .def_1178 .def_1180))
(define-fun .def_1185 () Bool (and .def_1181 .def_1184))
(define-fun .def_1188 () Bool (and .def_1185 .def_1187))
(define-fun .def_1192 () Bool (and .def_1188 .def_1191))
(define-fun .def_1195 () Bool (and .def_1192 .def_1194))
(define-fun .def_1199 () Bool (and .def_1195 .def_1198))
(define-fun .def_1163 () Bool (= call_moesi.ite15.next call_moesi.ite14.next))
(define-fun .def_1164 () Bool (or param_etat_mo2.next .def_1163))
(define-fun .def_1159 () Bool (= call_moesi.ite10.next call_moesi.ite15.next))
(define-fun .def_1155 () Bool (not param_etat_mo2.next))
(define-fun .def_1160 () Bool (or .def_1155 .def_1159))
(define-fun .def_1154 () Bool (= call_moesi.ite2.next call_moesi.ite7.next))
(define-fun .def_1156 () Bool (or .def_1154 .def_1155))
(define-fun .def_1151 () Bool (= call_moesi.ite7.next call_moesi.ite6.next))
(define-fun .def_1153 () Bool (or .def_1151 param_etat_mo2.next))
(define-fun .def_1157 () Bool (and .def_1153 .def_1156))
(define-fun .def_1161 () Bool (and .def_1157 .def_1160))
(define-fun .def_1165 () Bool (and .def_1161 .def_1164))
(define-fun .def_1200 () Bool (and .def_1165 .def_1199))
(define-fun .def_1232 () Bool (and .def_1200 .def_1231))
(define-fun .def_1240 () Bool (and .def_1232 .def_1239))
(define-fun .def_1244 () Bool (and .def_1240 .def_1243))
(define-fun .def_1247 () Bool (and .def_1244 .def_1246))
(define-fun .def_1251 () Bool (and .def_1247 .def_1250))
(define-fun .def_1255 () Bool (and .def_1251 .def_1254))
(define-fun .def_1259 () Bool (and .def_1255 .def_1258))
(define-fun .def_1262 () Bool (and .def_1259 .def_1261))
(define-fun .def_1264 () Bool (and .def_1262 .def_1263))
(define-fun .def_1266 () Bool (and .def_1264 .def_1265))
(define-fun .def_1268 () Bool (and .def_1266 .def_1267))
(define-fun .def_1270 () Bool (and .def_1268 .def_1269))
(define-fun .def_1272 () Bool (and .def_1270 .def_1271))
(define-fun .def_1274 () Bool (and .def_1272 .def_1273))
(define-fun .def_1288 () Bool (and .def_1274 .def_1287))
(define-fun .def_1290 () Bool (and .def_1288 .def_1289))
(define-fun .def_899 () Bool (= call_Sofar.flby call_Sofar.Sofar))
(define-fun .def_894 () Bool (and param_etat_mo4 param_etat_mo3))
(define-fun .def_892 () Bool (and param_etat_mo4 param_etat_mo2))
(define-fun .def_890 () Bool (and param_etat_mo2 param_etat_mo3))
(define-fun .def_888 () Bool (and param_etat_mo4 param_etat_mo1))
(define-fun .def_886 () Bool (and param_etat_mo1 param_etat_mo3))
(define-fun .def_885 () Bool (and param_etat_mo2 param_etat_mo1))
(define-fun .def_887 () Bool (or .def_885 .def_886))
(define-fun .def_889 () Bool (or .def_887 .def_888))
(define-fun .def_891 () Bool (or .def_889 .def_890))
(define-fun .def_893 () Bool (or .def_891 .def_892))
(define-fun .def_895 () Bool (or .def_893 .def_894))
(define-fun .def_896 () Bool (not .def_895))
(define-fun .def_897 () Bool (= call_excludes4.excludes .def_896))
(define-fun .def_883 () Bool (= call_moesi.flby call_moesi.erreur_mo))
(define-fun .def_881 () Bool (= call_moesi.flby6 call_moesi.owned_mo))
(define-fun .def_879 () Bool (= call_moesi.flby5 call_moesi.invalid_mo))
(define-fun .def_877 () Bool (= call_moesi.flby4 call_moesi.shared_mo))
(define-fun .def_875 () Bool (= call_moesi.flby3 call_moesi.exclusive_mo))
(define-fun .def_873 () Bool (= call_moesi.flby2 call_moesi.modified_mo))
(define-fun .def_871 () Bool (= erreur_mo call_moesi.erreur_mo))
(define-fun .def_868 () Bool (= owned_mo call_moesi.owned_mo))
(define-fun .def_864 () Bool (= invalid_mo call_moesi.invalid_mo))
(define-fun .def_860 () Bool (= shared_mo call_moesi.shared_mo))
(define-fun .def_856 () Bool (= exclusive_mo call_moesi.exclusive_mo))
(define-fun .def_852 () Bool (= modified_mo call_moesi.modified_mo))
(define-fun .def_846 () Bool (not erreur_mo))
(define-fun .def_844 () Bool (not call_Sofar.Sofar))
(define-fun .def_847 () Bool (or .def_844 .def_846))
(define-fun .def_848 () Bool (= _OK_ .def_847))
(define-fun .def_838 () Bool (= call_moesi.ite32 call_moesi.ite33))
(define-fun .def_839 () Bool (or param_etat_mo3 .def_838))
(define-fun .def_835 () Bool (= call_moesi.ite30 call_moesi.ite33))
(define-fun .def_813 () Bool (not param_etat_mo3))
(define-fun .def_836 () Bool (or .def_813 .def_835))
(define-fun .def_832 () Bool (= call_moesi.ite26 call_moesi.ite27))
(define-fun .def_833 () Bool (or param_etat_mo3 .def_832))
(define-fun .def_829 () Bool (= call_moesi.ite27 call_moesi.ite24))
(define-fun .def_830 () Bool (or .def_813 .def_829))
(define-fun .def_825 () Bool (= call_moesi.ite20 call_moesi.ite21))
(define-fun .def_826 () Bool (or param_etat_mo3 .def_825))
(define-fun .def_822 () Bool (= call_moesi.ite18 call_moesi.ite21))
(define-fun .def_823 () Bool (or .def_813 .def_822))
(define-fun .def_819 () Bool (= call_moesi.ite13 call_moesi.ite14))
(define-fun .def_820 () Bool (or param_etat_mo3 .def_819))
(define-fun .def_816 () Bool (= call_moesi.ite11 call_moesi.ite14))
(define-fun .def_817 () Bool (or .def_813 .def_816))
(define-fun .def_812 () Bool (= call_moesi.ite3 call_moesi.ite6))
(define-fun .def_814 () Bool (or .def_812 .def_813))
(define-fun .def_809 () Bool (= call_moesi.ite5 call_moesi.ite6))
(define-fun .def_811 () Bool (or .def_809 param_etat_mo3))
(define-fun .def_815 () Bool (and .def_811 .def_814))
(define-fun .def_818 () Bool (and .def_815 .def_817))
(define-fun .def_821 () Bool (and .def_818 .def_820))
(define-fun .def_824 () Bool (and .def_821 .def_823))
(define-fun .def_827 () Bool (and .def_824 .def_826))
(define-fun .def_831 () Bool (and .def_827 .def_830))
(define-fun .def_834 () Bool (and .def_831 .def_833))
(define-fun .def_837 () Bool (and .def_834 .def_836))
(define-fun .def_840 () Bool (and .def_837 .def_839))
(define-fun .def_805 () Bool (= call_moesi.ite34 call_moesi.ite33))
(define-fun .def_806 () Bool (or param_etat_mo1 .def_805))
(define-fun .def_801 () Bool (= call_moesi.ite29 call_moesi.ite34))
(define-fun .def_771 () Bool (not param_etat_mo1))
(define-fun .def_802 () Bool (or .def_771 .def_801))
(define-fun .def_796 () Bool (= call_moesi.ite28 call_moesi.ite27))
(define-fun .def_797 () Bool (or param_etat_mo1 .def_796))
(define-fun .def_792 () Bool (= call_moesi.ite23 call_moesi.ite28))
(define-fun .def_793 () Bool (or .def_771 .def_792))
(define-fun .def_787 () Bool (= call_moesi.ite22 call_moesi.ite21))
(define-fun .def_788 () Bool (or param_etat_mo1 .def_787))
(define-fun .def_783 () Bool (= call_moesi.ite17 call_moesi.ite22))
(define-fun .def_784 () Bool (or .def_771 .def_783))
(define-fun .def_778 () Bool (= call_moesi.ite15 call_moesi.ite16))
(define-fun .def_779 () Bool (or param_etat_mo1 .def_778))
(define-fun .def_775 () Bool (= call_moesi.ite9 call_moesi.ite16))
(define-fun .def_776 () Bool (or .def_771 .def_775))
(define-fun .def_770 () Bool (= call_moesi.ite call_moesi.ite8))
(define-fun .def_772 () Bool (or .def_770 .def_771))
(define-fun .def_767 () Bool (= call_moesi.ite7 call_moesi.ite8))
(define-fun .def_769 () Bool (or .def_767 param_etat_mo1))
(define-fun .def_773 () Bool (and .def_769 .def_772))
(define-fun .def_777 () Bool (and .def_773 .def_776))
(define-fun .def_780 () Bool (and .def_777 .def_779))
(define-fun .def_785 () Bool (and .def_780 .def_784))
(define-fun .def_789 () Bool (and .def_785 .def_788))
(define-fun .def_794 () Bool (and .def_789 .def_793))
(define-fun .def_798 () Bool (and .def_794 .def_797))
(define-fun .def_803 () Bool (and .def_798 .def_802))
(define-fun .def_807 () Bool (and .def_803 .def_806))
(define-fun .def_763 () Bool (= call_moesi.ite15 call_moesi.ite14))
(define-fun .def_764 () Bool (or param_etat_mo2 .def_763))
(define-fun .def_759 () Bool (= call_moesi.ite10 call_moesi.ite15))
(define-fun .def_754 () Bool (not param_etat_mo2))
(define-fun .def_760 () Bool (or .def_754 .def_759))
(define-fun .def_753 () Bool (= call_moesi.ite7 call_moesi.ite2))
(define-fun .def_755 () Bool (or .def_753 .def_754))
(define-fun .def_749 () Bool (= call_moesi.ite7 call_moesi.ite6))
(define-fun .def_751 () Bool (or .def_749 param_etat_mo2))
(define-fun .def_756 () Bool (and .def_751 .def_755))
(define-fun .def_761 () Bool (and .def_756 .def_760))
(define-fun .def_765 () Bool (and .def_761 .def_764))
(define-fun .def_808 () Bool (and .def_765 .def_807))
(define-fun .def_841 () Bool (and .def_808 .def_840))
(define-fun .def_849 () Bool (and .def_841 .def_848))
(define-fun .def_853 () Bool (and .def_849 .def_852))
(define-fun .def_857 () Bool (and .def_853 .def_856))
(define-fun .def_861 () Bool (and .def_857 .def_860))
(define-fun .def_865 () Bool (and .def_861 .def_864))
(define-fun .def_869 () Bool (and .def_865 .def_868))
(define-fun .def_872 () Bool (and .def_869 .def_871))
(define-fun .def_874 () Bool (and .def_872 .def_873))
(define-fun .def_876 () Bool (and .def_874 .def_875))
(define-fun .def_878 () Bool (and .def_876 .def_877))
(define-fun .def_880 () Bool (and .def_878 .def_879))
(define-fun .def_882 () Bool (and .def_880 .def_881))
(define-fun .def_884 () Bool (and .def_882 .def_883))
(define-fun .def_898 () Bool (and .def_884 .def_897))
(define-fun .def_900 () Bool (and .def_898 .def_899))
(define-fun .def_1291 () Bool (and .def_900 .def_1290))
(define-fun .def_1141 () Bool (<= param_init_invalid_mo.next 0))
(define-fun .def_1142 () Bool (not .def_1141))
(define-fun .def_1144 () Bool (and .def_1142 call_excludes4.excludes.next))
(define-fun .def_1145 () Bool (or call_Sofar.Sofar .def_1144))
(define-fun .def_1147 () Bool (= .def_1145 call_Sofar.flby.next))
(define-fun .def_1138 () Bool (= call_moesi.ite34.next call_moesi.flby6.next))
(define-fun .def_1134 () Bool (= call_moesi.ite28.next call_moesi.flby5.next))
(define-fun .def_1130 () Bool (= call_moesi.ite22.next call_moesi.flby4.next))
(define-fun .def_1126 () Bool (= call_moesi.ite16.next call_moesi.flby3.next))
(define-fun .def_1122 () Bool (= call_moesi.ite8.next call_moesi.flby2.next))
(define-fun .def_1116 () Bool (<= 2 call_moesi.exclusive_mo.next))
(define-fun .def_1118 () Bool (= .def_1116 call_moesi.flby.next))
(define-fun .def_1078 () Bool (<= 1 call_moesi.invalid_mo))
(define-fun .def_1112 () Bool (= call_moesi.garde_mo4.next .def_1078))
(define-fun .def_1109 () Bool (= call_moesi.ite31.next 0))
(define-fun .def_956 () Bool (not call_moesi.garde_mo4.next))
(define-fun .def_1110 () Bool (or .def_956 .def_1109))
(define-fun .def_1106 () Bool (= call_moesi.ite19.next 0))
(define-fun .def_1107 () Bool (or .def_956 .def_1106))
(define-fun .def_1103 () Bool (= call_moesi.ite4.next 0))
(define-fun .def_1104 () Bool (or .def_956 .def_1103))
(define-fun .def_1101 () Bool (= call_moesi.ite12.next 1))
(define-fun .def_1102 () Bool (or .def_956 .def_1101))
(define-fun .def_1105 () Bool (and .def_1102 .def_1104))
(define-fun .def_1108 () Bool (and .def_1105 .def_1107))
(define-fun .def_1111 () Bool (and .def_1108 .def_1110))
(define-fun .def_1113 () Bool (and .def_1111 .def_1112))
(define-fun .def_1096 () Int (+ call_moesi.shared_mo call_moesi.owned_mo))
(define-fun .def_1097 () Bool (<= 2 .def_1096))
(define-fun .def_1098 () Bool (= call_moesi.garde_mo3.next .def_1097))
(define-fun .def_1093 () Bool (= call_moesi.ite30.next 0))
(define-fun .def_940 () Bool (not call_moesi.garde_mo3.next))
(define-fun .def_1094 () Bool (or .def_940 .def_1093))
(define-fun .def_1090 () Bool (= call_moesi.ite18.next 0))
(define-fun .def_1091 () Bool (or .def_940 .def_1090))
(define-fun .def_1087 () Bool (= call_moesi.ite3.next 0))
(define-fun .def_1088 () Bool (or .def_940 .def_1087))
(define-fun .def_1085 () Bool (= call_moesi.ite11.next 1))
(define-fun .def_1086 () Bool (or .def_940 .def_1085))
(define-fun .def_1089 () Bool (and .def_1086 .def_1088))
(define-fun .def_1092 () Bool (and .def_1089 .def_1091))
(define-fun .def_1095 () Bool (and .def_1092 .def_1094))
(define-fun .def_1099 () Bool (and .def_1095 .def_1098))
(define-fun .def_1082 () Bool (<= 1 call_moesi.exclusive_mo))
(define-fun .def_1083 () Bool (= call_moesi.garde_mo2.next .def_1082))
(define-fun .def_1079 () Bool (= call_moesi.garde_mo1.next .def_1078))
(define-fun .def_1075 () Bool (= call_moesi.ite.next 0))
(define-fun .def_966 () Bool (not call_moesi.garde_mo1.next))
(define-fun .def_1076 () Bool (or .def_966 .def_1075))
(define-fun .def_1073 () Bool (= call_moesi.ite9.next 0))
(define-fun .def_1074 () Bool (or .def_966 .def_1073))
(define-fun .def_1077 () Bool (and .def_1074 .def_1076))
(define-fun .def_1080 () Bool (and .def_1077 .def_1079))
(define-fun .def_1069 () Bool (= call_moesi.owned_mo call_moesi.ite31.next))
(define-fun .def_1070 () Bool (or call_moesi.garde_mo4.next .def_1069))
(define-fun .def_1066 () Bool (= call_moesi.owned_mo call_moesi.ite29.next))
(define-fun .def_1067 () Bool (or call_moesi.garde_mo1.next .def_1066))
(define-fun .def_1064 () Bool (= call_moesi.owned_mo call_moesi.ite30.next))
(define-fun .def_1065 () Bool (or call_moesi.garde_mo3.next .def_1064))
(define-fun .def_1068 () Bool (and .def_1065 .def_1067))
(define-fun .def_1071 () Bool (and .def_1068 .def_1070))
(define-fun .def_1059 () Bool (= call_moesi.invalid_mo call_moesi.ite25.next))
(define-fun .def_1060 () Bool (or call_moesi.garde_mo4.next .def_1059))
(define-fun .def_1056 () Bool (= call_moesi.invalid_mo call_moesi.ite24.next))
(define-fun .def_1057 () Bool (or call_moesi.garde_mo3.next .def_1056))
(define-fun .def_1051 () Int (* (- 1) call_moesi.ite23.next))
(define-fun .def_1052 () Int (+ call_moesi.invalid_mo .def_1051))
(define-fun .def_1053 () Bool (= .def_1052 1))
(define-fun .def_1054 () Bool (or .def_966 .def_1053))
(define-fun .def_1049 () Bool (= call_moesi.invalid_mo call_moesi.ite23.next))
(define-fun .def_1050 () Bool (or call_moesi.garde_mo1.next .def_1049))
(define-fun .def_1055 () Bool (and .def_1050 .def_1054))
(define-fun .def_1058 () Bool (and .def_1055 .def_1057))
(define-fun .def_1061 () Bool (and .def_1058 .def_1060))
(define-fun .def_1044 () Bool (= call_moesi.shared_mo call_moesi.ite19.next))
(define-fun .def_1045 () Bool (or call_moesi.garde_mo4.next .def_1044))
(define-fun .def_1041 () Bool (= call_moesi.shared_mo call_moesi.ite17.next))
(define-fun .def_1042 () Bool (or call_moesi.garde_mo1.next .def_1041))
(define-fun .def_1039 () Bool (= call_moesi.shared_mo call_moesi.ite18.next))
(define-fun .def_1040 () Bool (or call_moesi.garde_mo3.next .def_1039))
(define-fun .def_1043 () Bool (and .def_1040 .def_1042))
(define-fun .def_1046 () Bool (and .def_1043 .def_1045))
(define-fun .def_1029 () Int (* (- 1) call_moesi.ite17.next))
(define-fun .def_1032 () Int (+ call_moesi.shared_mo .def_1029))
(define-fun .def_1033 () Int (+ call_moesi.exclusive_mo .def_1032))
(define-fun .def_1034 () Bool (= .def_1033 (- 1)))
(define-fun .def_1035 () Bool (or .def_966 .def_1034))
(define-fun .def_1025 () Bool (= call_moesi.exclusive_mo call_moesi.ite12.next))
(define-fun .def_1026 () Bool (or call_moesi.garde_mo4.next .def_1025))
(define-fun .def_1022 () Bool (= call_moesi.exclusive_mo call_moesi.ite11.next))
(define-fun .def_1023 () Bool (or call_moesi.garde_mo3.next .def_1022))
(define-fun .def_1018 () Bool (= call_moesi.exclusive_mo call_moesi.ite10.next))
(define-fun .def_1019 () Bool (or call_moesi.garde_mo2.next .def_1018))
(define-fun .def_1015 () Bool (= call_moesi.exclusive_mo call_moesi.ite9.next))
(define-fun .def_1016 () Bool (or call_moesi.garde_mo1.next .def_1015))
(define-fun .def_1010 () Int (* (- 1) call_moesi.ite10.next))
(define-fun .def_1011 () Int (+ call_moesi.exclusive_mo .def_1010))
(define-fun .def_1012 () Bool (= .def_1011 1))
(define-fun .def_907 () Bool (not call_moesi.garde_mo2.next))
(define-fun .def_1013 () Bool (or .def_907 .def_1012))
(define-fun .def_1017 () Bool (and .def_1013 .def_1016))
(define-fun .def_1020 () Bool (and .def_1017 .def_1019))
(define-fun .def_1024 () Bool (and .def_1020 .def_1023))
(define-fun .def_1027 () Bool (and .def_1024 .def_1026))
(define-fun .def_1036 () Bool (and .def_1027 .def_1035))
(define-fun .def_1005 () Bool (= call_moesi.owned_mo call_moesi.ite32.next))
(define-fun .def_1006 () Bool (or param_etat_mo4.next .def_1005))
(define-fun .def_1002 () Bool (= call_moesi.ite31.next call_moesi.ite32.next))
(define-fun .def_974 () Bool (not param_etat_mo4.next))
(define-fun .def_1003 () Bool (or .def_974 .def_1002))
(define-fun .def_997 () Bool (= call_moesi.invalid_mo call_moesi.ite26.next))
(define-fun .def_998 () Bool (or param_etat_mo4.next .def_997))
(define-fun .def_994 () Bool (= call_moesi.ite25.next call_moesi.ite26.next))
(define-fun .def_995 () Bool (or .def_974 .def_994))
(define-fun .def_990 () Bool (= call_moesi.shared_mo call_moesi.ite20.next))
(define-fun .def_991 () Bool (or param_etat_mo4.next .def_990))
(define-fun .def_987 () Bool (= call_moesi.ite19.next call_moesi.ite20.next))
(define-fun .def_988 () Bool (or .def_974 .def_987))
(define-fun .def_982 () Bool (= call_moesi.exclusive_mo call_moesi.ite13.next))
(define-fun .def_983 () Bool (or param_etat_mo4.next .def_982))
(define-fun .def_979 () Bool (= call_moesi.ite12.next call_moesi.ite13.next))
(define-fun .def_980 () Bool (or .def_974 .def_979))
(define-fun .def_973 () Bool (= call_moesi.ite4.next call_moesi.ite5.next))
(define-fun .def_975 () Bool (or .def_973 .def_974))
(define-fun .def_970 () Bool (= call_moesi.modified_mo call_moesi.ite5.next))
(define-fun .def_972 () Bool (or .def_970 param_etat_mo4.next))
(define-fun .def_976 () Bool (and .def_972 .def_975))
(define-fun .def_981 () Bool (and .def_976 .def_980))
(define-fun .def_984 () Bool (and .def_981 .def_983))
(define-fun .def_989 () Bool (and .def_984 .def_988))
(define-fun .def_992 () Bool (and .def_989 .def_991))
(define-fun .def_996 () Bool (and .def_992 .def_995))
(define-fun .def_999 () Bool (and .def_996 .def_998))
(define-fun .def_1004 () Bool (and .def_999 .def_1003))
(define-fun .def_1007 () Bool (and .def_1004 .def_1006))
(define-fun .def_960 () Int (* (- 1) call_moesi.ite29.next))
(define-fun .def_963 () Int (+ call_moesi.owned_mo .def_960))
(define-fun .def_964 () Int (+ call_moesi.modified_mo .def_963))
(define-fun .def_965 () Bool (= .def_964 0))
(define-fun .def_967 () Bool (or .def_965 .def_966))
(define-fun .def_944 () Int (* (- 1) call_moesi.ite25.next))
(define-fun .def_950 () Int (+ call_moesi.owned_mo .def_944))
(define-fun .def_951 () Int (+ call_moesi.invalid_mo .def_950))
(define-fun .def_952 () Int (+ call_moesi.shared_mo .def_951))
(define-fun .def_953 () Int (+ call_moesi.exclusive_mo .def_952))
(define-fun .def_954 () Int (+ call_moesi.modified_mo .def_953))
(define-fun .def_955 () Bool (= .def_954 1))
(define-fun .def_957 () Bool (or .def_955 .def_956))
(define-fun .def_928 () Int (* (- 1) call_moesi.ite24.next))
(define-fun .def_934 () Int (+ call_moesi.owned_mo .def_928))
(define-fun .def_935 () Int (+ call_moesi.invalid_mo .def_934))
(define-fun .def_936 () Int (+ call_moesi.shared_mo .def_935))
(define-fun .def_937 () Int (+ call_moesi.exclusive_mo .def_936))
(define-fun .def_938 () Int (+ call_moesi.modified_mo .def_937))
(define-fun .def_939 () Bool (= .def_938 1))
(define-fun .def_941 () Bool (or .def_939 .def_940))
(define-fun .def_923 () Bool (= call_moesi.modified_mo call_moesi.ite4.next))
(define-fun .def_925 () Bool (or .def_923 call_moesi.garde_mo4.next))
(define-fun .def_918 () Bool (= call_moesi.modified_mo call_moesi.ite3.next))
(define-fun .def_920 () Bool (or .def_918 call_moesi.garde_mo3.next))
(define-fun .def_914 () Bool (= call_moesi.modified_mo call_moesi.ite2.next))
(define-fun .def_915 () Bool (or call_moesi.garde_mo2.next .def_914))
(define-fun .def_910 () Bool (= call_moesi.modified_mo call_moesi.ite.next))
(define-fun .def_912 () Bool (or .def_910 call_moesi.garde_mo1.next))
(define-fun .def_903 () Int (* (- 1) call_moesi.ite2.next))
(define-fun .def_904 () Int (+ call_moesi.modified_mo .def_903))
(define-fun .def_905 () Bool (= .def_904 (- 1)))
(define-fun .def_908 () Bool (or .def_905 .def_907))
(define-fun .def_913 () Bool (and .def_908 .def_912))
(define-fun .def_916 () Bool (and .def_913 .def_915))
(define-fun .def_921 () Bool (and .def_916 .def_920))
(define-fun .def_926 () Bool (and .def_921 .def_925))
(define-fun .def_942 () Bool (and .def_926 .def_941))
(define-fun .def_958 () Bool (and .def_942 .def_957))
(define-fun .def_968 () Bool (and .def_958 .def_967))
(define-fun .def_1008 () Bool (and .def_968 .def_1007))
(define-fun .def_1037 () Bool (and .def_1008 .def_1036))
(define-fun .def_1047 () Bool (and .def_1037 .def_1046))
(define-fun .def_1062 () Bool (and .def_1047 .def_1061))
(define-fun .def_1072 () Bool (and .def_1062 .def_1071))
(define-fun .def_1081 () Bool (and .def_1072 .def_1080))
(define-fun .def_1084 () Bool (and .def_1081 .def_1083))
(define-fun .def_1100 () Bool (and .def_1084 .def_1099))
(define-fun .def_1114 () Bool (and .def_1100 .def_1113))
(define-fun .def_1119 () Bool (and .def_1114 .def_1118))
(define-fun .def_1123 () Bool (and .def_1119 .def_1122))
(define-fun .def_1127 () Bool (and .def_1123 .def_1126))
(define-fun .def_1131 () Bool (and .def_1127 .def_1130))
(define-fun .def_1135 () Bool (and .def_1131 .def_1134))
(define-fun .def_1139 () Bool (and .def_1135 .def_1138))
(define-fun .def_1148 () Bool (and .def_1139 .def_1147))
(define-fun .def_1292 () Bool (and .def_1148 .def_1291))
(assert .def_1292)
